language ESSENCE' 1.0
$ minion Nodes: 4
$ minion TotalTime: 0.002309
$ Savile Row TotalTime: 1.075
letting x_SetExplicitVarSize_tuple2 be [[6, 6, 6;int(1..3)], 
[7, 8, 6;int(1..3)];int(1..2)]
letting x_SetExplicitVarSizeWithDefault be [[6, 9, 9;int(1..3)], 
[7, 8, 9;int(1..3)];int(1..2)]
letting x_SetExplicitVarSize_tuple1 be [[true, false, false;int(1..3)], 
[true, true, false;int(1..3)];int(1..2)]
